104 22 125 149 62 3 63 48 73 76 87 1 98 34 30 84 7 103 82 95 107 5 100 143 97 124 8 89 96 35 93 126 33 92 46 90 25 110 81 141 83 56 146 26 75 18 142 85 132 65 55 58 86 29 108 70 135 50 137 102 114 99 19 2 37 6 28 9 42 40 118 127 69 36 61 11 148 130 17 66 60 140 117 41 57 39 101 116 67 43 12 24 53 139 120 47 20 51 109 134 138 54 105 111 52 10 113 94 88 121 79 78 15 59 16 133 80 14 122 77 131 32 38 23 129 27 31 145 144 147 49 72 64 112 136 123 74 13 106 91 119 68 128 45 71 44 21 150 115 4 
7055